100 82189

 787 342
149 860
731 792
122 221
211 73
280 746
538 772
685 625
156 46
238 504
376 274
82 555
492 208
356 929
925 861
273 615
580 124
44 10
573 329
123 187
349 543
708 668
330 60
409 761
991 899
323 886
111 951
770 782
89 442
433 217
710 911
794 2
712 536
99 718
539 832
601 711
146 356
694 626
257 792
189 667
240 165
871 998
899 734
503 91
708 167
809 959
677 207
819 282
271 65
520 888
550 516
114 157
339 761
568 769
943 747
986 306
359 878
650 982
614 395
334 74
689 187
169 574
339 337
798 676
261 568
887 623
735 730
199 240
211 533
287 141
692 265
762 139
743 459
472 70
482 385
23 630
560 198
109 205
296 726
6 568
550 799
681 982
868 805
795 687
203 859
325 882
825 974
785 640
244 431
327 890
987 325
47 442
761 804
591 288
622 226
13 64
907 967
380 938
365 560
602 714
